unsat
(:cnf-encoding-aux-vars   28
 :eliminated-applications 4
 :eliminated-vars         40
 :max-memory              18.36
 :memory                  18.09
 :nlsat-conflicts         5
 :nlsat-decisions         7
 :nlsat-learned-added     4
 :nlsat-propagations      25
 :num-allocs              11511
 :rlimit-count            26875
 :time                    0.01
 :total-time              0.02)
